# Objective value = 3.0396059173404728e+02
x[0] 1
x[1] 1
x[2] 1
x[3] 1
x[4] 1
x[5] 0
x[6] 1
x[7] 0
x[8] 1
x[9] 0
x[10] 1
x[11] 0
x[12] 0
x[13] 1
x[14] 0
x[15] 0
x[16] 0
x[17] 1
x[18] 0
x[19] 0
x[20] 1
x[21] 1
x[22] 0
x[23] 1
x[24] 0
x[25] 0
x[26] 0
x[27] 1
x[28] 1
x[29] 1
x[30] 1
x[31] 0
x[32] 1
x[33] 1
x[34] 1
x[35] 0
x[36] 1
x[37] 0
x[38] 0
x[39] 0
x[40] 1
x[41] 1
x[42] 1
x[43] 1
x[44] 0
x[45] 1
x[46] 1
x[47] 1
x[48] 1
x[49] 0
x[50] 1
x[51] 0
x[52] 1
x[53] 1
x[54] 0
x[55] 1
x[56] 0
x[57] 0
x[58] 0
x[59] 0
x[60] 0
x[61] 1
x[62] 0
x[63] 0
x[64] 0
x[65] 1
x[66] 0
x[67] 1
x[68] 1
x[69] 0
x[70] 1
x[71] 1
x[72] 1
x[73] 0
x[74] 0
x[75] 0
x[76] 1
x[77] 1
x[78] 0
x[79] 0
x[80] 1
x[81] 1
x[82] 0
x[83] 1
x[84] 0
x[85] 0
x[86] 0
x[87] 0
x[88] 1
x[89] 0
x[90] 0
x[91] 0
x[92] 1
x[93] 1
x[94] 0
x[95] 0
x[96] 1
x[97] 0
x[98] 1
x[99] 0
x[100] 0
x[101] 0
x[102] 0
x[103] 0
x[104] 0
x[105] 0
x[106] 1
x[107] 1
x[108] 1
x[109] 0
x[110] 1
x[111] 0
x[112] 1
x[113] 0
x[114] 0
x[115] 1
x[116] 0
x[117] 0
x[118] 0
x[119] 0
x[120] 0
x[121] 1
x[122] 1
x[123] 1
x[124] 1
x[125] 0
x[126] 1
x[127] 0
x[128] 0
x[129] 0
x[130] 0
x[131] 0
x[132] 1
x[133] 0
x[134] 1
x[135] 1
x[136] 0
x[137] 1
x[138] 1
x[139] 0
x[140] 0
x[141] 0
x[142] 1
x[143] 1
x[144] 1
x[145] 0
x[146] 0
x[147] 1
x[148] 0
x[149] 1
x[150] 0
x[151] 1
x[152] 0
x[153] 1
x[154] 0
x[155] 1
x[156] 0
x[157] 1
x[158] 1
x[159] 1
x[160] 1
x[161] 1
x[162] 0
x[163] 0
x[164] 0
x[165] 0
x[166] 1
x[167] 1
x[168] 0
x[169] 0
x[170] 1
x[171] 0
x[172] 1
x[173] 0
x[174] 0
x[175] 0
x[176] 0
x[177] 0
x[178] 0
x[179] 0
x[180] 1
x[181] 1
x[182] 1
x[183] 0
x[184] 1
x[185] 1
x[186] 0
x[187] 0
x[188] 1
x[189] 1
x[190] 0
x[191] 1
x[192] 1
x[193] 0
x[194] 0
x[195] 1
x[196] 1
x[197] 1
x[198] 0
x[199] 0
x[200] 1
x[201] 0
x[202] 1
x[203] 1
x[204] 1
x[205] 0
x[206] 1
x[207] 0
x[208] 0
x[209] 0
x[210] 0
x[211] 1
x[212] 1
x[213] 0
x[214] 0
x[215] 1
x[216] 1
x[217] 1
x[218] 0
x[219] 1
x[220] 1
x[221] 1
x[222] 0
x[223] 1
x[224] 0
x[225] 0
x[226] 0
x[227] 0
x[228] 1
x[229] 1
x[230] 1
x[231] 1
x[232] 1
x[233] 1
x[234] 0
x[235] 0
x[236] 0
x[237] 1
x[238] 0
x[239] 0
x[240] 1
x[241] 0
x[242] 0
x[243] 1
x[244] 1
x[245] 1
x[246] 0
x[247] 0
x[248] 0
x[249] 1
x[250] 0
x[251] 0
x[252] 1
x[253] 1
x[254] 0
x[255] 1
x[256] 0
x[257] 1
x[258] 0
x[259] 1
x[260] 0
x[261] 1
x[262] 0
x[263] 1
x[264] 0
x[265] 0
x[266] 1
x[267] 1
x[268] 0
x[269] 1
x[270] 0
x[271] 0
x[272] 0
x[273] 0
x[274] 1
x[275] 0
x[276] 1
x[277] 1
x[278] 1
x[279] 1
x[280] 1
x[281] 0
x[282] 0
x[283] 0
x[284] 0
x[285] 0
x[286] 1
x[287] 0
x[288] 1
x[289] 1
x[290] 1
x[291] 1
x[292] 0
x[293] 0
x[294] 0
x[295] 0
x[296] 1
x[297] 1
x[298] 0
x[299] 1
x[300] 1
x[301] 1
x[302] 1
x[303] 0
x[304] 0
x[305] 1
x[306] 0
x[307] 1
x[308] 0
x[309] 0
x[310] 1
x[311] 1
x[312] 0
x[313] 1
x[314] 0
x[315] 0
x[316] 0
x[317] 0
x[318] 0
x[319] 0
x[320] 0
x[321] 1
x[322] 0
x[323] 1
x[324] 1
x[325] 0
x[326] 1
x[327] 1
x[328] 0
x[329] 1
x[330] 1
x[331] 0
x[332] 0
x[333] 1
x[334] 0
x[335] 0
x[336] 0
x[337] 0
x[338] 1
x[339] 1
x[340] 0
x[341] 0
x[342] 0
x[343] 1
x[344] 0
x[345] 1
x[346] 1
x[347] 1
x[348] 1
x[349] 0
x[350] 0
x[351] 1
x[352] 1
x[353] 1
x[354] 0
x[355] 1
x[356] 1
x[357] 1
x[358] 1
x[359] 1
x[360] 1
x[361] 1
x[362] 0
x[363] 0
x[364] 0
x[365] 0
x[366] 1
x[367] 1
x[368] 1
x[369] 1
x[370] 1
x[371] 1
x[372] 1
x[373] 0
x[374] 0
x[375] 0
x[376] 0
x[377] 0
x[378] 1
x[379] 0
x[380] 1
x[381] 1
x[382] 1
x[383] 0
x[384] 1
x[385] 1
x[386] 1
x[387] 1
x[388] 1
x[389] 0
x[390] 1
x[391] 0
x[392] 1
x[393] 0
x[394] 1
x[395] 1
x[396] 1
x[397] 0
x[398] 0
x[399] 0
x[400] 1
x[401] 0
x[402] 0
x[403] 0
x[404] 0
x[405] 0
x[406] 0
x[407] 1
x[408] 1
x[409] 0
x[410] 1
x[411] 1
x[412] 1
x[413] 1
x[414] 1
x[415] 0
x[416] 0
x[417] 1
x[418] 0
x[419] 1
x[420] 1
x[421] 0
x[422] 1
x[423] 0
x[424] 0
x[425] 0
x[426] 0
x[427] 1
x[428] 0
x[429] 0
x[430] 0
x[431] 1
x[432] 0
x[433] 1
x[434] 1
x[435] 0
x[436] 1
x[437] 0
x[438] 1
x[439] 1
x[440] 1
x[441] 0
x[442] 1
x[443] 1
x[444] 0
x[445] 1
x[446] 1
x[447] 1
x[448] 0
x[449] 0
x[450] 0
x[451] 0
x[452] 1
x[453] 1
x[454] 1
x[455] 1
x[456] 0
x[457] 0
x[458] 1
x[459] 1
x[460] 1
x[461] 0
x[462] 0
x[463] 0
x[464] 1
x[465] 1
x[466] 0
x[467] 1
x[468] 1
x[469] 0
x[470] 1
x[471] 0
x[472] 1
x[473] 0
x[474] 1
x[475] 0
x[476] 1
x[477] 1
x[478] 0
x[479] 0
x[480] 0
x[481] 1
x[482] 1
x[483] 1
x[484] 1
x[485] 1
x[486] 1
x[487] 0
x[488] 1
x[489] 0
x[490] 1
x[491] 0
x[492] 1
x[493] 0
x[494] 1
x[495] 0
x[496] 0
x[497] 1
x[498] 0
x[499] 1
x[500] 1
x[501] 0
x[502] 0
x[503] 1
x[504] 1
x[505] 1
x[506] 1
x[507] 0
x[508] 0
x[509] 0
x[510] 0
x[511] 1
x[512] 0
x[513] 1
x[514] 0
x[515] 1
x[516] 0
x[517] 0
x[518] 0
x[519] 1
x[520] 0
x[521] 1
x[522] 0
x[523] 0
x[524] 0
x[525] 1
x[526] 0
x[527] 0
x[528] 1
x[529] 1
x[530] 0
x[531] 1
x[532] 0
x[533] 0
x[534] 1
x[535] 1
x[536] 1
x[537] 0
x[538] 0
x[539] 0
x[540] 1
x[541] 1
x[542] 1
x[543] 0
x[544] 0
x[545] 0
x[546] 0
x[547] 1
x[548] 0
x[549] 1
x[550] 0
x[551] 0
x[552] 0
x[553] 1
x[554] 0
x[555] 1
x[556] 1
x[557] 1
x[558] 0
x[559] 0
x[560] 1
x[561] 1
x[562] 0
x[563] 0
x[564] 1
x[565] 1
x[566] 0
x[567] 0
x[568] 0
x[569] 0
x[570] 1
x[571] 0
x[572] 1
x[573] 0
x[574] 1
x[575] 1
x[576] 1
x[577] 0
x[578] 1
x[579] 1
x[580] 0
x[581] 1
x[582] 0
x[583] 0
x[584] 1
x[585] 1
x[586] 0
x[587] 0
x[588] 1
x[589] 0
x[590] 1
x[591] 1
x[592] 0
x[593] 1
x[594] 0
x[595] 0
x[596] 1
x[597] 1
x[598] 1
x[599] 0
x[600] 1
x[601] 0
x[602] 1
x[603] 0
x[604] 0
x[605] 1
x[606] 0
x[607] 0
x[608] 0
x[609] 0
x[610] 1
x[611] 0
x[612] 1
x[613] 0
x[614] 1
x[615] 1
x[616] 0
x[617] 1
x[618] 1
x[619] 0
x[620] 1
x[621] 1
x[622] 0
x[623] 0
x[624] 1
x[625] 1
x[626] 0
x[627] 1
x[628] 0
x[629] 0
x[630] 0
x[631] 0
x[632] 0
x[633] 0
x[634] 1
x[635] 0
x[636] 0
x[637] 1
x[638] 1
x[639] 1
x[640] 1
x[641] 1
x[642] 0
x[643] 0
x[644] 0
x[645] 1
x[646] 1
x[647] 1
x[648] 1
x[649] 1
x[650] 0
x[651] 0
x[652] 1
x[653] 1
x[654] 1
x[655] 0
x[656] 0
x[657] 1
x[658] 0
x[659] 0
x[660] 0
x[661] 1
x[662] 1
x[663] 1
x[664] 1
x[665] 1
x[666] 0
x[667] 1
x[668] 1
x[669] 1
x[670] 0
x[671] 1
x[672] 1
x[673] 1
x[674] 0
x[675] 0
x[676] 0
x[677] 1
x[678] 1
x[679] 0
x[680] 0
x[681] 1
x[682] 0
x[683] 0
x[684] 1
x[685] 0
x[686] 0
x[687] 1
x[688] 1
x[689] 0
x[690] 0
x[691] 0
x[692] 1
x[693] 1
x[694] 1
x[695] 1
x[696] 1
x[697] 0
x[698] 0
x[699] 1
x[700] 0
x[701] 1
x[702] 1
x[703] 1
x[704] 1
x[705] 1
x[706] 1
x[707] 0
x[708] 0
x[709] 0
x[710] 1
x[711] 0
x[712] 0
x[713] 0
x[714] 0
x[715] 0
x[716] 0
x[717] 1
x[718] 0
x[719] 1
x[720] 0
x[721] 0
x[722] 0
x[723] 1
x[724] 0
x[725] 1
x[726] 1
x[727] 0
x[728] 1
x[729] 1
x[730] 1
x[731] 1
x[732] 1
x[733] 0
x[734] 0
x[735] 1
x[736] 1
x[737] 0
x[738] 0
x[739] 1
x[740] 1
x[741] 0
x[742] 1
x[743] 1
x[744] 0
x[745] 1
x[746] 0
x[747] 0
x[748] 0
x[749] 0
x[750] 0
x[751] 1
x[752] 1
x[753] 0
x[754] 1
x[755] 1
x[756] 0
x[757] 1
x[758] 0
x[759] 1
x[760] 0
x[761] 1
x[762] 0
x[763] 0
x[764] 0
x[765] 0
x[766] 0
x[767] 0
x[768] 0
x[769] 0
x[770] 0
x[771] 0
x[772] 1
x[773] 0
x[774] 0
x[775] 0
x[776] 1
x[777] 0
x[778] 1
x[779] 1
x[780] 0
x[781] 1
x[782] 0
x[783] 0
x[784] 0
x[785] 1
x[786] 1
x[787] 0
x[788] 0
x[789] 0
x[790] 0
x[791] 1
x[792] 1
x[793] 1
x[794] 1
x[795] 1
x[796] 0
x[797] 1
x[798] 0
x[799] 1
x[800] 0
x[801] 1
x[802] 1
x[803] 0
x[804] 0
x[805] 0
x[806] 0
x[807] 1
x[808] 0
x[809] 1
x[810] 0
x[811] 0
x[812] 0
x[813] 0
x[814] 0
x[815] 0
x[816] 0
x[817] 1
x[818] 1
x[819] 0
x[820] 1
x[821] 0
x[822] 1
x[823] 0
x[824] 1
x[825] 1
x[826] 0
x[827] 0
x[828] 0
x[829] 1
x[830] 1
x[831] 1
x[832] 0
x[833] 1
x[834] 1
x[835] 1
x[836] 1
x[837] 1
x[838] 0
x[839] 0
x[840] 1
x[841] 0
x[842] 1
x[843] 0
x[844] 1
x[845] 0
x[846] 0
x[847] 1
x[848] 0
x[849] 1
x[850] 0
x[851] 1
x[852] 0
x[853] 1
x[854] 1
x[855] 0
x[856] 1
x[857] 0
x[858] 0
x[859] 1
x[860] 0
x[861] 1
x[862] 0
x[863] 1
x[864] 0
x[865] 1
x[866] 1
x[867] 0
x[868] 0
x[869] 0
x[870] 0
x[871] 0
x[872] 0
x[873] 0
x[874] 1
x[875] 1
x[876] 1
x[877] 0
x[878] 1
x[879] 1
x[880] 0
x[881] 0
x[882] 1
x[883] 1
x[884] 0
x[885] 1
x[886] 0
x[887] 1
x[888] 0
x[889] 0
x[890] 0
x[891] 1
x[892] 1
x[893] 1
x[894] 0
x[895] 0
x[896] 0
x[897] 0
x[898] 1
x[899] 0
x[900] 0
x[901] 0
x[902] 1
x[903] 0
x[904] 1
x[905] 1
x[906] 1
x[907] 0
x[908] 0
x[909] 1
x[910] 1
x[911] 1
x[912] 0
x[913] 0
x[914] 1
x[915] 1
x[916] 0
x[917] 0
x[918] 1
x[919] 1
x[920] 0
x[921] 0
x[922] 0
x[923] 1
x[924] 1
x[925] 0
x[926] 1
x[927] 1
x[928] 1
x[929] 0
x[930] 1
x[931] 1
x[932] 1
x[933] 1
x[934] 0
x[935] 0
x[936] 0
x[937] 1
x[938] 1
x[939] 0
x[940] 0
x[941] 1
x[942] 0
x[943] 0
x[944] 0
x[945] 0
x[946] 1
x[947] 0
x[948] 0
x[949] 0
x[950] 0
x[951] 1
x[952] 0
x[953] 0
x[954] 1
x[955] 0
x[956] 0
x[957] 1
x[958] 0
x[959] 1
x[960] 1
x[961] 0
x[962] 1
x[963] 1
x[964] 0
x[965] 0
x[966] 1
x[967] 0
x[968] 1
x[969] 0
x[970] 1
x[971] 0
x[972] 0
x[973] 0
x[974] 0
x[975] 1
x[976] 1
x[977] 0
x[978] 0
x[979] 1
x[980] 1
x[981] 0
x[982] 0
x[983] 0
x[984] 1
x[985] 1
x[986] 1
x[987] 1
x[988] 1
x[989] 0
x[990] 0
x[991] 0
x[992] 0
x[993] 0
x[994] 0
x[995] 0
x[996] 0
x[997] 0
x[998] 0
x[999] 1
